Problem:    
Rows:       195
Columns:    69 (54 integer, 54 binary)
Non-zeros:  710
Status:     INTEGER OPTIMAL
Objective:  value = 14.893848 (MINimum)

   No.   Row name        Activity     Lower bound   Upper bound
------ ------------    ------------- ------------- -------------
     1 r.5                   14.8938             0               
     2 r.6                   14.8938       -996.48               
     3 r.7                   1014.89             0               
     4 r.8                  -985.106      -987.811               
     5 r.9                   1014.89             0               
     6 r.10                 -987.515      -996.898               
     7 r.11                  14.8938             0               
     8 r.12                  12.4854       -988.54               
     9 r.13                  1014.89             0               
    10 r.14                 -990.617      -997.268               
    11 r.15                  14.8938             0               
    12 r.16                  12.4854      -985.616               
    13 r.17                  1014.89             0               
    14 r.18                 -993.349      -998.673               
    15 r.19                  14.8938             0               
    16 r.20                  6.65072      -991.518               
    17 r.21                  1014.89             0               
    18 r.22                 -994.676      -997.155               
    19 r.23                  14.8938             0               
    20 r.24                  12.4854      -989.737               
    21 r.25                  1014.89             0               
    22 r.26                 -998.913      -998.913               
    23 r.27                  14.8938             0               
    24 r.28                 -993.834      -993.834               
    25 r.29                  1014.89             0               
    26 r.30                 -985.106      -997.592               
    27 r.31                  14.8938             0               
    28 r.32                  14.8938      -994.575               
    29 r.33                        1             1             = 
    30 r.34                        1             1             = 
    31 r.35                        1             1             = 
    32 r.36                        1             1             = 
    33 r.37                        1             1             = 
    34 r.38                        1             1             = 
    35 r.39                        1             1             = 
    36 r.40                     1001             2               
    37 r.41                    -1001         -1001               
    38 r.42                  1997.59      -996.898               
    39 r.43                     1001             2               
    40 r.44                    -1001         -1001               
    41 r.45                  1997.59       -988.54               
    42 r.46                     1001             2               
    43 r.47                    -1001         -1001               
    44 r.48                  1994.49      -997.268               
    45 r.49                     1001             2               
    46 r.50                    -1001         -1001               
    47 r.51                  1997.59      -985.616               
    48 r.52                     1001             2               
    49 r.53                    -1001         -1001               
    50 r.54                  1991.76      -998.673               
    51 r.55                     1001             2               
    52 r.56                    -1001         -1001               
    53 r.57                  1991.76      -991.518               
    54 r.58                     1001             2               
    55 r.59                    -1001         -1001               
    56 r.60                  1990.43      -997.155               
    57 r.61                     1001             2               
    58 r.62                    -1001         -1001               
    59 r.63                  1997.59      -989.737               
    60 r.64                  12.4147       -996.48               
    61 r.65                 -987.585      -987.811               
    62 r.66                     1010       -996.48               
    63 r.67                  9.99849      -987.811               
    64 r.68                     1001             2               
    65 r.69                    -1001         -1001               
    66 r.70                     2000      -997.592               
    67 r.71                     1001             2               
    68 r.72                    -1001         -1001               
    69 r.73                     2000      -994.575               
    70 r.74                     1001             2               
    71 r.75                    -1001         -1001               
    72 r.76                  2002.41       3.51983               
    73 r.77                     1001             2               
    74 r.78                    -1001         -1001               
    75 r.79                  2002.41       12.1891               
    76 r.80                        2             2               
    77 r.81                       -2         -1001               
    78 r.82                 -3.10242      -997.268               
    79 r.83                     1000             2               
    80 r.84                    -1000         -1001               
    81 r.85                     2000      -985.616               
    82 r.86                        2             2               
    83 r.87                       -2         -1001               
    84 r.88                 -5.83465      -998.673               
    85 r.89                     1000             2               
    86 r.90                    -1000         -1001               
    87 r.91                  1994.17      -991.518               
    88 r.92                        2             2               
    89 r.93                       -2         -1001               
    90 r.94                  -7.1612      -997.155               
    91 r.95                     1000             2               
    92 r.96                    -1000         -1001               
    93 r.97                     2000      -989.737               
    94 r.98                 -989.994      -996.898               
    95 r.99                  10.0062       -988.54               
    96 r.100                 7.59002      -996.898               
    97 r.101                 1007.59       -988.54               
    98 r.102                -997.592      -997.592               
    99 r.103                 2.40848      -994.575               
   100 r.104                -997.592      -997.592               
   101 r.105                 2.40848      -994.575               
   102 r.106                    1001             2               
   103 r.107                   -1001         -1001               
   104 r.108                 2005.51       3.51983               
   105 r.109                    1001             2               
   106 r.110                   -1001         -1001               
   107 r.111                 2002.41       12.1891               
   108 r.112                       2             2               
   109 r.113                      -2         -1001               
   110 r.114                 3.10242       3.10243               
   111 r.115                    1000             2               
   112 r.116                   -1000         -1001               
   113 r.117                    2000       11.4599               
   114 r.118                -997.268      -997.268               
   115 r.119                 5.83465      -985.616               
   116 r.120                -997.268      -997.268               
   117 r.121                 5.83465      -985.616               
   118 r.122                       2             2               
   119 r.123                      -2         -1001               
   120 r.124                -4.05878      -997.155               
   121 r.125                    1000             2               
   122 r.126                   -1000         -1001               
   123 r.127                    2000      -989.737               
   124 r.128                -993.096      -997.268               
   125 r.129                 10.0062      -985.616               
   126 r.130                 4.48759      -997.268               
   127 r.131                 1007.59      -985.616               
   128 r.132                -994.489      -997.592               
   129 r.133                  5.5109      -994.575               
   130 r.134                -997.592      -997.592               
   131 r.135                 2.40848      -994.575               
   132 r.136                    1001             2               
   133 r.137                   -1001         -1001               
   134 r.138                 2008.24       3.51983               
   135 r.139                    1001             2               
   136 r.140                   -1001         -1001               
   137 r.141                 2008.24       12.1891               
   138 r.142                       2             2               
   139 r.143                      -2         -1001               
   140 r.144                 5.83465       3.10243               
   141 r.145                    1000             2               
   142 r.146                   -1000         -1001               
   143 r.147                 2005.83       11.4599               
   144 r.148                       2             2               
   145 r.149                      -2         -1001               
   146 r.150                -1.32656      -997.155               
   147 r.151                    1000             2               
   148 r.152                   -1000         -1001               
   149 r.153                 2005.83      -989.737               
   150 r.154                -995.828      -998.673               
   151 r.155                 4.17157      -991.518               
   152 r.156                 1.75537      -998.673               
   153 r.157                 1001.76      -991.518               
   154 r.158                -991.757      -997.592               
   155 r.159                 8.24312      -994.575               
   156 r.160                -991.757      -997.592               
   157 r.161                 8.24312      -994.575               
   158 r.162                    1001             2               
   159 r.163                   -1001         -1001               
   160 r.164                 2009.57       3.51983               
   161 r.165                    1001             2               
   162 r.166                   -1001         -1001               
   163 r.167                 2002.41       12.1891               
   164 r.168                       2             2               
   165 r.169                      -2         -1001               
   166 r.170                  7.1612       3.10243               
   167 r.171                    1000             2               
   168 r.172                   -1000         -1001               
   169 r.173                    2000       11.4599               
   170 r.174                       2             2               
   171 r.175                      -2         -1001               
   172 r.176                 4.05878       2.73222               
   173 r.177                    1000             2               
   174 r.178                   -1000         -1001               
   175 r.179                    2000       14.3837               
   176 r.180                       2             2               
   177 r.181                      -2         -1001               
   178 r.182                 1.32656       1.32656               
   179 r.183                    1000             2               
   180 r.184                   -1000         -1001               
   181 r.185                 1994.17       8.48167               
   182 r.186                -997.155      -997.155               
   183 r.187                 10.0062      -989.737               
   184 r.188                0.428812      -997.155               
   185 r.189                 1007.59      -989.737               
   186 r.190                 -990.43      -997.592               
   187 r.191                 9.56968      -994.575               
   188 r.192                -997.592      -997.592               
   189 r.193                 2.40848      -994.575               
   190 r.194                    1001             2               
   191 r.195                   -1001         -1001               
   192 r.196                    2000       3.51983               
   193 r.197                    1001             2               
   194 r.198                   -1001         -1001               
   195 r.199                    2000       12.1891               

   No. Column name       Activity     Lower bound   Upper bound
------ ------------    ------------- ------------- -------------
     1 tt                    14.8938             0               
     2 s_1_1        *              0             0             1 
     3 t_1_1                       0             0               
     4 s_2_1        *              1             0             1 
     5 t_2_1                       0             0               
     6 s_1_2        *              1             0             1 
     7 t_1_2                 2.40848             0               
     8 s_1_7        *              1             0             1 
     9 s_2_2        *              0             0             1 
    10 t_2_2                 2.40848             0               
    11 s_2_7        *              0             0             1 
    12 s_1_3        *              1             0             1 
    13 t_1_3                  5.5109             0               
    14 s_2_3        *              0             0             1 
    15 t_2_3                 2.40848             0               
    16 s_1_4        *              1             0             1 
    17 t_1_4                 8.24312             0               
    18 s_2_4        *              0             0             1 
    19 t_2_4                 8.24312             0               
    20 s_1_5        *              1             0             1 
    21 t_1_5                 9.56968             0               
    22 s_2_5        *              0             0             1 
    23 t_2_5                 2.40848             0               
    24 s_1_6        *              1             0             1 
    25 t_1_6                 12.4147             0               
    26 s_2_6        *              0             0             1 
    27 t_2_6                    1010             0               
    28 t_1_7                       0             0               
    29 t_2_7                       0             0               
    30 r_1_1_2      *              1             0             1 
    31 u_1_1_2      *              0             0             1 
    32 r_2_1_2      *              1             0             1 
    33 u_2_1_2      *              0             0             1 
    34 r_1_1_3      *              1             0             1 
    35 u_1_1_3      *              0             0             1 
    36 r_2_1_3      *              1             0             1 
    37 u_2_1_3      *              0             0             1 
    38 r_1_1_4      *              1             0             1 
    39 u_1_1_4      *              0             0             1 
    40 r_2_1_4      *              1             0             1 
    41 u_2_1_4      *              0             0             1 
    42 r_1_1_5      *              1             0             1 
    43 u_1_1_5      *              0             0             1 
    44 r_2_1_5      *              1             0             1 
    45 u_2_1_5      *              0             0             1 
    46 r_1_1_7      *              1             0             1 
    47 u_1_1_7      *              0             0             1 
    48 r_2_1_7      *              1             0             1 
    49 u_2_1_7      *              0             0             1 
    50 r_1_2_3      *              0             0             1 
    51 u_1_2_3      *              0             0             1 
    52 r_2_2_3      *              1             0             1 
    53 u_2_2_3      *              0             0             1 
    54 r_1_2_4      *              0             0             1 
    55 u_1_2_4      *              0             0             1 
    56 r_2_2_4      *              1             0             1 
    57 u_2_2_4      *              0             0             1 
    58 r_1_2_5      *              0             0             1 
    59 u_1_2_5      *              0             0             1 
    60 r_2_2_5      *              1             0             1 
    61 u_2_2_5      *              0             0             1 
    62 r_1_3_5      *              0             0             1 
    63 u_1_3_5      *              0             0             1 
    64 r_2_3_5      *              1             0             1 
    65 u_2_3_5      *              0             0             1 
    66 r_1_4_5      *              0             0             1 
    67 u_1_4_5      *              0             0             1 
    68 r_2_4_5      *              1             0             1 
    69 u_2_4_5      *              0             0             1 

Integer feasibility conditions:

KKT.PE: max.abs.err = 2.27e-13 on row 22
        max.rel.err = 1.11e-16 on row 22
        High quality

KKT.PB: max.abs.err = 4.44e-16 on row 110
        max.rel.err = 1.08e-16 on row 110
        High quality

End of output
